! OLYP pcSseg-0 TightSCF RI KDIIS 

%pointcharges "schrodinger_md_0_061.pos"

%output
  PrintLevel Mini
  Print [ P_Cartesian ] 0
  Print [ P_Internal ] 0
  Print [ P_Basis ] 0
  Print [ P_Mulliken ] 0
  Print [ P_Loewdin ] 0
  Print [ P_Mayer ] 0
  Print [ P_OrbEn ] 0
  end

%scf
  SOSCF Start 0.001 MaxIt 40 end
  DIISMaxEq 15
  directresetfreq 1
  end

* xyz   1   1
 C        7.1080   -9.2480    3.5130
 O        6.1110   -8.4650    3.6390
 N        8.2860   -9.0140    4.1100
 H        9.1420   -9.5170    3.9220
 C        8.5750   -7.7680    4.7600
 H        7.8760   -6.9880    4.4560
 C        8.5710   -7.9820    6.2820
 H        7.5760   -8.3720    6.4990
 C        9.5120   -9.0390    6.8200
 H        9.3800   -9.3910    7.8440
 H        9.5070   -9.9600    6.2370
 H       10.5320   -8.6610    6.8960
 C        8.6580   -6.6190    7.1370
 H        9.4930   -5.9650    6.8870
 H        7.7570   -6.0980    6.8120
 C        8.5650   -6.8970    8.6410
 H        7.8000   -7.5850    9.0000
 H        9.5600   -7.1800    8.9840
 H        8.4290   -5.9010    9.0640
 C        5.0760   -5.4540    1.8100
 O        4.3050   -4.5690    1.6170
 N        5.6210   -5.7080    3.0310
 H        6.2120   -6.5210    3.1340
 C        5.1910   -4.9320    4.1730
 H        4.4700   -4.1730    3.8710
 C        4.4440   -5.9260    5.0970
 H        5.1140   -6.7440    5.3630
 H        4.3130   -5.5110    6.0960
 C        3.0420   -6.3790    4.6840
 H        2.3340   -5.5590    4.8010
 H        2.9490   -6.6450    3.6320
 S        2.2770   -7.6330    5.6650
 C        3.2070   -9.0100    5.0710
 H        2.8830   -9.9530    5.5110
 H        3.1660   -9.1510    3.9910
 H        4.2730   -8.8810    5.2590
 H        5.3923   -6.1607    1.0428
 H        6.0142   -4.4667    4.7152
 C        4.9360  -11.9600    2.9840
 O        5.6470  -12.8830    3.3120
 N        5.5140  -10.8080    2.6020
 H        4.8790  -10.1290    2.2070
 C        6.9210  -10.4900    2.6050
 H        7.5500  -11.2620    3.0490
 C        7.4840  -10.0860    1.2340
 H        7.0200   -9.1260    1.0070
 C        9.0490   -9.6850    1.1690
 H        9.2560   -9.5730    0.1050
 H        9.3630   -8.6940    1.4960
 H        9.7650  -10.3560    1.6450
 C        7.2770  -11.1520    0.1110
 H        8.1460  -11.8050    0.1920
 H        6.3520  -11.7210    0.1990
 C        7.1250  -10.7170   -1.3720
 H        8.0210  -10.2480   -1.7790
 H        6.9280  -11.4820   -2.1230
 H        6.3040  -10.0050   -1.4510
 H        3.8626  -12.0220    2.8051
 C        9.9490   -7.2070    4.3340
 O       10.8260   -8.0370    4.1140
 N       10.1130   -5.8670    4.2800
 H        9.3350   -5.2340    4.4000
 C       11.4410   -5.2680    3.9050
 H       12.0940   -6.0700    3.5610
 C       11.4270   -4.0200    2.9530
 H       10.8010   -4.2140    2.0820
 H       11.1040   -3.0820    3.4050
 C       12.8410   -3.7480    2.3820
 H       13.6010   -3.8660    3.1550
 C       13.3130   -4.7740    1.3620
 H       13.9820   -5.4670    1.8710
 H       12.5820   -5.3100    0.7560
 H       13.9320   -4.2010    0.6720
 C       13.0890   -2.2850    1.9440
 H       12.2020   -1.6560    2.0160
 H       13.9010   -1.9340    2.5810
 H       13.4020   -2.2830    0.9000
 C       11.9170   -4.7760    5.2580
 O       11.3830   -3.8560    5.8800
 N       12.9500   -5.5320    5.7750
 H       13.4980   -6.1540    5.1970
 C       13.5250   -5.2610    7.0780
 H       13.3390   -4.1990    7.2350
 C       12.6120   -5.9200    8.2020
 H       11.5250   -5.8380    8.1810
 H       12.8350   -6.9660    7.9880
 O       13.0380   -5.6100    9.5460
 H       12.9230   -4.6670    9.6820
 H       14.6075   -5.3847    7.0471
 C        8.0860  -14.1900    6.4160
 O        8.9990  -14.8120    6.9680
 N        8.2330  -13.6680    5.2100
 H        7.4370  -13.3710    4.6650
 C        9.4900  -13.6940    4.3430
 H       10.1230  -14.5140    4.6830
 C        9.1340  -13.9730    2.8160
 H        8.3940  -13.1980    2.6150
 C       10.2750  -14.1350    1.9190
 H       10.9700  -13.2980    1.9780
 H       10.8430  -15.0120    2.2290
 H       10.1300  -14.3400    0.8580
 O        8.3190  -15.1170    2.6370
 H        8.4440  -15.8070    3.2930
 H        7.1086  -14.1218    6.8936
 C       10.2170  -12.3150    4.5430
 O        9.8180  -11.3890    3.8500
 N       11.2880  -12.3210    5.3320
 H       11.7210  -13.2250    5.4610
 C       12.1430  -11.1880    5.6930
 H       11.5670  -10.2720    5.5680
 C       12.8270  -11.3480    7.1130
 H       13.5000  -12.2000    7.2130
 H       13.5300  -10.5440    7.3290
 C       11.9090  -11.5960    8.2680
 C       11.2560  -12.7550    8.5740
 H       11.2700  -13.7030    8.0570
 N       10.5070  -12.5730    9.7290
 H        9.9520  -13.3360   10.0910
 C       10.5950  -11.2870   10.2300
 C       10.1330  -10.6510   11.3440
 H        9.4230  -11.2290   11.9160
 C       10.4370   -9.2750   11.6710
 H        9.9770   -8.9140   12.5800
 C       11.3810   -8.6620   10.8370
 H       11.6360   -7.6640   11.1630
 C       11.8500   -9.2990    9.6460
 H       12.6610   -8.8100    9.1260
 C       11.5120  -10.6210    9.3370
 C       13.2490  -11.0880    4.6150
 O       14.2180  -11.9210    4.6080
 N       13.1460  -10.0510    3.8090
 H       12.4470   -9.3430    3.9830
 C       14.2030   -9.6490    2.9000
 H       15.0460  -10.3400    2.9010
 C       13.6520   -9.5550    1.4630
 H       14.4190   -9.2580    0.7470
 C       13.1700  -10.9050    0.8420
 H       12.4330  -11.4200    1.4580
 H       12.7270  -10.6670   -0.1260
 H       14.0280  -11.5590    0.6850
 C       12.6120   -8.4200    1.2950
 H       13.0410   -7.4260    1.4250
 H       11.9770   -8.4010    0.4090
 H       11.8760   -8.4860    2.0970
 C       14.7930   -8.2740    3.3070
 O       14.0210   -7.4610    3.8210
 N       16.1020   -8.0010    2.9680
 H       16.6150   -8.6150    2.3530
 C       16.8740   -6.8600    3.3940
 H       16.3500   -6.4120    4.2380
 C       18.3780   -7.2010    3.7150
 H       18.8980   -7.5140    2.8100
 H       18.8330   -6.2990    4.1230
 C       18.5610   -8.3870    4.6650
 H       18.3750   -8.0950    5.6990
 H       17.8520   -9.2110    4.5720
 C       20.0090   -8.9930    4.7620
 H       20.7030   -8.1660    4.6090
 H       20.1470   -9.2840    5.8030
 C       20.3650  -10.1690    3.8170
 H       21.3840  -10.5030    4.0110
 H       19.6620  -10.9940    3.9320
 N       20.1840   -9.7780    2.3810
 H       20.7360   -8.9690    2.1350
 H       20.7200  -10.4510    1.8530
 H       19.2140   -9.7220    2.1060
 H       16.8505   -6.0631    2.6506
*
%eprnmr  ori GIAO
   nuclei = 1,  2,  3,  4,  5,  6,  7,  8,  9, 10, 11, 12, 13, 14, 15, 16, 17, 18, 19 {shift}
end
